50 646374982
148974544 132974544
93109090 83109090
30536770 20536770
30536770 20536770
6107354 4107354
186218180 166218180
18322062 12322062
61073540 41073540
148974544 132974544
186218180 166218180
74487272 66487272
55865454 49865454
54966186 36966186
54966186 36966186
74487272 66487272
36644124 24644124
37243636 33243636
6107354 4107354
61073540 41073540
42751478 28751478
36644124 24644124
6107354 4107354
18322062 12322062
36644124 24644124
130352726 116352726
24429416 16429416
36644124 24644124
48858832 32858832
6107354 4107354
12214708 8214708
36644124 24644124
55865454 49865454
130352726 116352726
37243636 33243636
18621818 16621818
148974544 132974544
36644124 24644124
37243636 33243636
148974544 132974544
186218180 166218180
36644124 24644124
36644124 24644124
148974544 132974544
36644124 24644124
55865454 49865454
42751478 28751478
6107354 4107354
61073540 41073540
30536770 20536770
74487272 66487272
